Mack/Bortfeldt(2008)
Bin-Packing-Problem
BP-RG/SBSBPP/SSSCSP
Testcase-ID	5
Problem-ID	23
no_item_types	8
no_items	2154
CONTAINER_DATA (l,w,h)	459	105	93
ITEMS_DATA:
Type	x	y	z	no_items
1	106	61	56	250
2	102	78	39	284
3	97	81	27	275
4	100	56	35	287
5	113	46	36	255
6	91	50	40	248
7	66	50	42	262
8	101	30	26	293
